0,173,158,66,191,60,168,129,122,193,102
173,0,113,99,95,80,121,120,48,34,162
158,113,0,58,195,94,24,94,40,178,96
66,99,58,0,198,21,88,173,110,63,126
191,95,195,198,0,181,200,116,66,136,33
60,80,94,21,181,0,185,189,56,127,187
168,121,24,88,200,185,0,133,199,69,25
129,120,94,173,116,189,133,0,100,88,141
122,48,40,110,66,56,199,100,0,39,71
193,34,178,63,136,127,69,88,39,0,171
102,162,96,126,33,187,25,141,71,171,0